c ---- [ banner ] ------------------------------------------------------------
c
c Kissat SAT Solver
c 
c Copyright (c) 2021-2024 Armin Biere University of Freiburg
c Copyright (c) 2019-2021 Armin Biere Johannes Kepler University Linz
c 
c Version 4.0.1 43f02cf3e992cb44653b35e5cb26f93281552ae0
c gcc (Ubuntu 13.2.0-23ubuntu4) 13.2.0 -W -Wall -O3 -DNDEBUG
c Thu Sep 12 12:27:46 CEST 2024 Linux abryzen9 6.8.0-41-generic x86_64
c
c ---- [ parsing ] -----------------------------------------------------------
c
c opened and reading DIMACS file:
c
c   /data/artifact/AMulet2.0_artifact/exp4/cnf_mfs_64/64_64_U1_DT_KS_Multgen_mfs.cnf
c
c parsed 'p cnf 34815 135884' header
c closing input after reading 2643918 bytes (3 MB)
c finished parsing after 0.02 seconds
c
c ---- [ options ] -----------------------------------------------------------
c
c --stable=0                       (different from default '1')
c
c ---- [ solving ] -----------------------------------------------------------
c
c  seconds switched rate     size/glue tier1  binary           remaining
c         MB reductions conflicts size  tier2     irredundant
c          level restarts redundant glue  trail           variables
c
c *  0.02 10 0 0 0  0 0   0   0 0.0 0 0 0 0 0% 27891 107991 34812 100%
c (  0.04 12 0 0 0  0 0   0   0 0.0 0 0 0 0 0% 27891 107991 34812 100%
c .  0.04 12 0 0 0  0 0   0   0 0.0 0 0 0 0 0% 27887 107991 34812 100%
c c  0.10 20 0 0 0  0 0   0   0 0.0 0 0 0 0 0% 34683 94399 31414 90%
c d  0.11 21 0 0 0  0 0   0   0 0.0 0 0 0 0 0% 27887 94399 31414 90%
c =  0.15 21 0 0 0  0 0   0   0 0.0 0 0 0 0 0% 28429 94399 31143 89%
c d  0.16 21 0 0 0  0 0   0   0 0.0 0 0 0 0 0% 27887 94399 31143 89%
c f  0.23 19 0 0 0  0 0   0   0 0.0 0 0 0 0 0% 30749 89825 32853 94%
c e  0.32 27 0 0 0  0 0   0   0 0.0 0 0 0 0 0% 9064 103627 21838 63%
c )  0.32 27 0 0 0  0 0   0   0 0.0 0 0 0 0 0% 9064 103627 21838 63%
c {  0.34 27 0 0 0  0 0   0   0 0.0 0 0 2 6 0% 9064 103627 21838 63%
c -  0.49 29 262 0 1 159 26 1000 726 3.5 22 6 3 12 20% 9098 103627 21838 63%
c -  0.59 29 324 0 2 231 26 2000 1435 3.9 23 6 4 12 22% 9118 103627 21838 63%
c c  0.72 23 305 0 2 308 28 2502 1883 3.9 23 6 4 12 24% 9134 103582 21827 63%
c d  0.72 23 305 0 2 308 28 2502 1879 3.9 23 6 4 12 24% 9112 103582 21827 63%
c u  0.74 23 305 0 2 308 28 2502 1394 3.9 23 6 4 12 24% 9115 103582 21827 63%
c v  0.75 23 305 0 2 308 28 2502 1316 3.9 23 6 4 12 24% 9115 103582 21827 63%
c w  0.76 23 305 0 2 308 28 2502 1312 3.9 23 6 4 12 24% 9115 103582 21827 63%
c x  0.77 23 305 0 2 308 28 2502 1312 3.9 23 6 4 12 24% 9115 103559 21827 63%
c =  0.82 23 305 0 2 308 28 2502 1312 3.9 23 6 4 12 24% 9471 103559 21649 62%
c
c  seconds   switched   rate       size/glue tier1     binary          remaining
c         MB  reductions conflicts       size  tier2      irredundant
c           level restarts    redundant    glue    trail          variables
c
c d  0.82 23 305 0 2 308 28 2502 1312 3.9 23 6 4 12 24% 9115 103559 21649 62%
c f  0.85 23 305 0 2 308 28 2502 1312 3.9 23 6 4 12 24% 9792 102265 22266 64%
c u  0.86 23 305 0 2 308 28 2502 1265 3.9 23 6 4 12 24% 9792 102265 22266 64%
c v  0.88 28 305 0 2 308 28 2502 1203 3.9 23 6 4 12 24% 9792 102265 22266 64%
c w  0.90 28 305 0 2 308 28 2502 1201 3.9 23 6 4 12 24% 9792 102265 22266 64%
c =  0.95 28 305 0 2 308 28 2502 1201 3.9 23 6 4 12 24% 10038 102265 22143 64%
c d  0.95 28 305 0 2 308 28 2502 1199 3.9 23 6 4 12 24% 9726 102265 22143 64%
c f  0.98 28 305 0 2 308 28 2502 1199 3.9 23 6 4 12 24% 10146 101635 22353 64%
c -  1.14 28 297 0 3 401 31 3415 1672 3.9 26 7 3 12 25% 10178 101635 22353 64%
c -  1.33 28 363 0 4 521 30 5147 2743 3.8 24 6 3 11 24% 10228 101635 22353 64%
c -  1.60 28 379 0 5 664 30 7147 3923 3.8 23 6 3 10 23% 10284 101635 22353 64%
c c  1.73 28 385 0 5 690 29 7710 4341 3.7 22 6 3 10 23% 10317 101476 22305 64%
c d  1.74 28 385 0 5 690 29 7710 4306 3.7 22 6 3 10 23% 10219 101476 22304 64%
c u  1.78 28 385 0 5 690 29 7710 3260 3.7 22 6 3 10 23% 10244 101476 22304 64%
c v  1.81 28 385 0 5 690 29 7710 2895 3.7 22 6 3 10 23% 10244 101476 22304 64%
c w  1.83 28 385 0 5 690 29 7710 2885 3.7 22 6 3 10 23% 10244 101476 22304 64%
c x  1.85 28 385 0 5 690 29 7710 2885 3.7 22 6 3 10 23% 10244 101019 22304 64%
c =  1.96 28 385 0 5 690 29 7710 2885 3.7 22 6 3 10 23% 10988 101019 21932 63%
c d  1.97 28 385 0 5 690 29 7710 2859 3.7 22 6 3 10 23% 10151 101019 21928 63%
c f  2.03 28 385 0 5 690 29 7710 2859 3.7 22 6 3 10 23% 10845 99978 22275 64%
c
c  seconds   switched   rate       size/glue tier1     binary          remaining
c         MB  reductions conflicts       size  tier2       irredundant
c           level restarts    redundant    glue    trail          variables
c
c u  2.14 28 385 0 5 690 29 7710 2697 3.7 22 6 3 10 23% 10847 99978 22275 64%
c v  2.16 28 385 0 5 690 29 7710 2653 3.7 22 6 3 10 23% 10847 99978 22275 64%
c w  2.18 28 385 0 5 690 29 7710 2646 3.7 22 6 3 10 23% 10847 99978 22275 64%
c x  2.21 28 385 0 5 690 29 7710 2646 3.7 22 6 3 10 23% 10847 96359 22275 64%
c =  2.33 28 385 0 5 690 29 7710 2646 3.7 22 6 3 10 23% 11445 96359 21976 63%
c d  2.34 28 385 0 5 690 29 7710 2639 3.7 22 6 3 10 23% 10765 96359 21976 63%
c t  2.35 28 385 0 5 690 29 7710 2639 3.7 22 6 3 10 23% 10754 96359 21976 63%
c f  2.40 28 385 0 5 690 29 7710 2639 3.7 22 6 3 10 23% 12068 94388 22633 65%
c -  3.03 28 376 0 6 907 29 9383 3440 3.9 24 6 2 9 24% 12141 94388 22633 65%
c o  3.29 28 371 0 6 1014 32 10198 4144 4.1 26 6 2 9 25% 12163 94388 22633 65%
c -  3.81 28 362 0 7 1198 33 11832 4912 4.5 29 6 2 9 25% 12210 94388 22633 65%
c s  3.98 28 368 0 7 1248 33 12509 5493 4.5 29 6 2 9 25% 12225 92737 22633 65%
c e  4.11 28 368 0 7 1248 33 12509 5493 4.5 29 6 2 9 25% 10470 93769 21264 61%
c s  4.12 28 368 0 7 1248 33 12509 5493 4.5 29 6 2 9 25% 10477 92716 21264 61%
c e  4.14 28 368 0 7 1248 33 12509 5493 4.5 29 6 2 9 25% 10471 92722 21259 61%
c ^  4.14 28 368 0 7 1248 33 12509 5493 4.5 29 6 2 9 25% 10471 92722 21259 61%
c -  4.59 28 382 0 8 1413 34 14477 6009 4.6 29 6 2 9 25% 10513 92722 21259 61%
c d  5.06 28 374 0 8 1576 34 15787 7197 4.4 30 7 2 9 26% 10249 92722 21079 61%
c u  5.11 28 374 0 8 1576 34 15787 5781 4.4 30 7 2 9 26% 10266 92722 21079 61%
c v  5.17 28 374 0 8 1576 34 15787 4940 4.4 30 7 2 9 26% 10268 92722 21079 61%
c
c  seconds   switched    rate        size/glue tier1    binary          remaining
c         MB  reductions   conflicts       size  tier2      irredundant
c           level  restarts     redundant    glue   trail          variables
c
c w  5.28 28 374 0 8 1576 34 15787 4940 4.4 30 7 2 9 26% 10268 92722 21079 61%
c x  5.33 28 374 0 8 1576 34 15787 4940 4.4 30 7 2 9 26% 10268 90993 21079 61%
c =  5.57 28 374 0 8 1576 34 15787 4940 4.4 30 7 2 9 26% 12342 90991 20042 58%
c d  5.58 28 374 0 8 1576 34 15787 4805 4.4 30 7 2 9 26% 9869 90991 20040 58%
c t  5.60 28 374 0 8 1576 34 15787 4805 4.4 30 7 2 9 26% 9861 90991 20040 58%
c f  5.68 28 374 0 8 1576 34 15787 4805 4.4 30 7 2 9 26% 9865 90983 20042 58%
c u  5.77 28 374 0 8 1576 34 15787 4439 4.4 30 7 2 9 26% 9865 90983 20042 58%
c v  5.80 28 374 0 8 1576 34 15787 4311 4.4 30 7 2 9 26% 9865 90983 20042 58%
c w  5.93 28 374 0 8 1576 34 15787 4283 4.4 30 7 2 9 26% 9865 90983 20042 58%
c x  5.97 28 374 0 8 1576 34 15787 4283 4.4 30 7 2 9 26% 9866 89310 20042 58%
c =  6.21 28 374 0 8 1576 34 15787 4283 4.4 30 7 2 9 26% 11616 89310 19167 55%
c d  6.22 28 374 0 8 1576 34 15787 4235 4.4 30 7 2 9 26% 9529 89310 19167 55%
c t  6.24 28 374 0 8 1576 34 15787 4235 4.4 30 7 2 9 26% 9528 89310 19167 55%
c -  6.57 28 379 0 9 1683 34 17305 4930 4.3 29 7 2 8 25% 9556 89310 19167 55%
c o  7.03 28 370 0 9 1798 32 20199 7459 4.1 28 7 2 8 25% 9596 89310 19167 55%
c -  7.10 28 370 0 10 1820 32 20305 6735 4.2 28 7 2 8 25% 9596 89310 19167 55%
c -  7.79 28 355 0 11 2036 31 23467 8458 4.1 28 7 2 8 25% 9651 89310 19167 55%
c s  8.24 28 353 0 11 2207 31 25010 9841 4.2 28 7 2 8 26% 9676 87985 19167 55%
c e  8.38 28 353 0 11 2207 31 25010 9841 4.2 28 7 2 8 26% 8407 91312 16474 47%
c s  8.40 28 353 0 11 2207 31 25010 9841 4.2 28 7 2 8 26% 8457 87249 16474 47%
c
c  seconds   switched     rate        size/glue tier1    binary         remaining
c         MB   reductions   conflicts       size  tier2     irredundant
c           level   restarts     redundant    glue   trail         variables
c
c e  8.45 28 353 0 11 2207 31 25010 9841 4.2 28 7 2 8 26% 8420 87302 16447 47%
c ^  8.45 28 353 0 11 2207 31 25010 9841 4.2 28 7 2 8 26% 8420 87302 16447 47%
c -  8.83 28 337 0 12 2272 30 26784 8318 4.0 27 7 2 7 26% 8435 87302 16447 47%
c d  8.87 28 336 0 12 2276 30 26914 8443 4.0 27 7 2 7 26% 8378 87302 16410 47%
c u  8.92 28 336 0 12 2276 30 26914 7016 4.0 27 7 2 7 26% 8396 87302 16410 47%
c v  8.97 28 336 0 12 2276 30 26914 5998 4.0 27 7 2 7 26% 8398 87302 16410 47%
c w  8.98 28 336 0 12 2276 30 26914 5997 4.0 27 7 2 7 26% 8398 87302 16410 47%
c x  9.07 28 336 0 12 2276 30 26914 5994 4.0 27 7 2 7 26% 8398 84280 16410 47%
c =  9.32 30 336 0 12 2276 30 26914 5994 4.0 27 7 2 7 26% 10980 84280 15119 43%
c d  9.32 30 336 0 12 2276 30 26914 5768 4.0 27 7 2 7 26% 8335 84280 15115 43%
c t  9.34 30 336 0 12 2276 30 26914 5768 4.0 27 7 2 7 26% 8272 84280 15115 43%
c f  9.43 30 336 0 12 2276 30 26914 5768 4.0 27 7 2 7 26% 8272 84215 15131 43%
c u  9.47 30 336 0 12 2276 30 26914 5220 4.0 27 7 2 7 26% 8273 84215 15131 43%
c v  9.50 30 336 0 12 2276 30 26914 5065 4.0 27 7 2 7 26% 8273 84215 15131 43%
c w  9.51 30 336 0 12 2276 30 26914 5061 4.0 27 7 2 7 26% 8273 84215 15131 43%
c x  9.62 30 336 0 12 2276 30 26914 5061 4.0 27 7 2 7 26% 8273 77082 15131 43%
c =  9.85 30 336 0 12 2276 30 26914 5061 4.0 27 7 2 7 26% 9223 77071 14656 42%
c d  9.86 30 336 0 12 2276 30 26914 4961 4.0 27 7 2 7 26% 8257 77071 14656 42%
c f  9.91 30 336 0 12 2276 30 26914 4961 4.0 27 7 2 7 26% 8259 77066 14657 42%
c - 10.40 30 309 0 13 2460 28 30248 6932 3.8 25 7 2 7 26% 8282 77066 14657 42%
c
c  seconds   switched     rate        size/glue tier1    binary         remaining
c         MB   reductions   conflicts       size  tier2     irredundant
c           level   restarts     redundant    glue   trail         variables
c
c - 11.14 30 285 0 14 2703 26 33853 9078 3.7 24 7 2 7 26% 8299 77064 14657 42%
c - 11.82 30 269 0 15 2992 26 37594 10742 3.6 24 7 2 7 26% 8340 77063 14657 42%
c o 12.44 30 262 0 15 3283 26 40302 13197 3.6 25 7 2 7 27% 8368 77062 14657 42%
c c 12.72 30 262 0 15 3398 26 41256 14020 3.6 25 7 2 7 26% 8437 76729 14587 42%
c d 12.73 30 262 0 15 3398 26 41256 13838 3.6 25 7 2 7 26% 8297 76729 14587 42%
c u 12.80 30 262 0 15 3398 26 41256 11603 3.6 25 7 2 7 26% 8313 76729 14587 42%
c v 12.89 30 262 0 15 3398 26 41256 10221 3.6 25 7 2 7 26% 8316 76729 14587 42%
c w 12.93 30 262 0 15 3398 26 41256 10218 3.6 25 7 2 7 26% 8316 76729 14587 42%
c x 13.01 30 262 0 15 3398 26 41256 10217 3.6 25 7 2 7 26% 8316 71856 14587 42%
c = 13.29 30 262 0 15 3398 26 41256 10217 3.6 25 7 2 7 26% 8922 71855 14284 41%
c d 13.30 30 262 0 15 3398 26 41256 9875 3.6 25 7 2 7 26% 8257 71855 14284 41%
c t 13.32 30 262 0 15 3398 26 41256 9875 3.6 25 7 2 7 26% 8252 71855 14284 41%
c u 13.40 30 262 0 15 3398 26 41256 9301 3.6 25 7 2 7 26% 8254 71855 14284 41%
c v 13.46 30 262 0 15 3398 26 41256 8925 3.6 25 7 2 7 26% 8254 71855 14284 41%
c w 13.58 30 262 0 15 3398 26 41256 8924 3.6 25 7 2 7 26% 8254 71855 14284 41%
c x 13.65 30 262 0 15 3398 26 41256 8924 3.6 25 7 2 7 26% 8254 69640 14284 41%
c = 13.91 30 262 0 15 3398 26 41256 8924 3.6 25 7 2 7 26% 8394 69640 14214 41%
c d 13.92 30 262 0 15 3398 26 41256 8917 3.6 25 7 2 7 26% 8249 69640 14213 41%
c - 13.97 30 262 0 16 3398 26 41466 7852 3.6 25 7 2 7 26% 8253 69640 14213 41%
c - 14.57 30 255 0 17 3607 25 45466 10023 3.5 24 7 2 7 26% 8274 69638 14213 41%
c
c  seconds   switched     rate         size/glue tier1    binary         remaining
c         MB   reductions   conflicts        size  tier2     irredundant
c           level   restarts      redundant    glue   trail         variables
c
c - 15.43 30 245 0 18 4001 25 49591 12145 3.5 24 7 2 7 26% 8292 69637 14213 41%
c s 15.87 30 245 0 18 4183 25 52111 14326 3.5 23 7 2 7 26% 8315 68135 14213 41%
c e 15.97 30 245 0 18 4183 25 52111 14326 3.5 23 7 2 7 26% 6888 70746 12986 37%
c s 15.99 30 245 0 18 4183 25 52111 14326 3.5 23 7 2 7 26% 6894 70257 12986 37%
c e 16.00 30 245 0 18 4183 25 52111 14326 3.5 23 7 2 7 26% 6856 70319 12959 37%
c ^ 16.00 30 245 0 18 4183 25 52111 14326 3.5 23 7 2 7 26% 6856 70319 12959 37%
c - 16.47 30 241 0 19 4411 25 53833 12199 3.4 23 7 2 6 27% 6859 70319 12959 37%
c - 17.20 30 231 0 20 4711 24 58193 14293 3.3 22 7 2 6 27% 6903 70319 12959 37%
c c 17.35 30 229 0 20 4764 24 58919 14904 3.3 23 7 2 6 27% 6958 70042 12912 37%
c d 17.35 30 229 0 20 4764 24 58919 14751 3.3 23 7 2 6 27% 6864 70042 12912 37%
c u 17.42 30 229 0 20 4764 24 58919 12260 3.3 23 7 2 6 27% 6886 70042 12912 37%
c v 17.48 30 229 0 20 4764 24 58919 10747 3.3 23 7 2 6 27% 6888 70042 12912 37%
c w 17.53 30 229 0 20 4764 24 58919 10705 3.3 23 7 2 6 27% 6888 70042 12912 37%
c x 17.59 30 229 0 20 4764 24 58919 10705 3.3 23 7 2 6 27% 6888 69937 12912 37%
c d 17.92 30 229 0 20 4764 24 58919 10694 3.3 23 7 2 6 27% 6870 69937 12903 37%
c t 17.93 30 229 0 20 4764 24 58919 10694 3.3 23 7 2 6 27% 6863 69937 12903 37%
c f 17.99 30 229 0 20 4764 24 58919 10694 3.3 23 7 2 6 27% 6864 69931 12904 37%
c c 18.04 30 229 0 20 4764 24 58919 10646 3.3 23 7 2 6 27% 6871 69889 12899 37%
c d 18.05 30 229 0 20 4764 24 58919 10646 3.3 23 7 2 6 27% 6861 69889 12899 37%
c u 18.10 30 229 0 20 4764 24 58919 10158 3.3 23 7 2 6 27% 6865 69889 12899 37%
c
c  seconds   switched     rate        size/glue tier1    binary         remaining
c         MB   reductions   conflicts       size  tier2     irredundant
c           level   restarts     redundant    glue   trail         variables
c
c v 18.15 30 229 0 20 4764 24 58919 9878 3.3 23 7 2 6 27% 6865 69889 12899 37%
c w 18.20 30 229 0 20 4764 24 58919 9854 3.3 23 7 2 6 27% 6865 69889 12899 37%
c d 18.21 30 229 0 20 4764 24 58919 9853 3.3 23 7 2 6 27% 6863 69889 12898 37%
c - 18.77 30 224 0 21 5003 24 62665 11779 3.2 22 7 2 6 27% 6885 69889 12898 37%
c - 19.86 30 219 0 22 5488 24 67249 14333 3.2 22 7 2 6 27% 6911 69889 12898 37%
c o 20.20 30 217 0 22 5670 23 70305 16938 3.1 22 7 2 6 26% 6925 69889 12898 37%
c - 20.68 30 215 0 23 5918 24 71939 16330 3.2 22 7 2 6 27% 6931 69889 12898 37%
c - 21.87 30 210 0 24 6484 24 76736 18100 3.2 22 7 2 6 27% 6977 69889 12898 37%
c d 22.61 30 207 0 24 6824 24 80019 20735 3.2 23 7 2 6 27% 6898 69889 12830 37%
c u 22.71 30 207 0 24 6824 24 80019 17424 3.2 23 7 2 6 27% 6928 69889 12830 37%
c v 22.79 30 207 0 24 6824 24 80019 15418 3.2 23 7 2 6 27% 6932 69889 12830 37%
c w 22.86 30 207 0 24 6824 24 80019 15418 3.2 23 7 2 6 27% 6932 69889 12830 37%
c x 22.98 30 207 0 24 6824 24 80019 15415 3.2 23 7 2 6 27% 6932 68365 12830 37%
c = 23.16 30 207 0 24 6824 24 80019 15415 3.2 23 7 2 6 27% 7060 68365 12766 37%
c d 23.17 30 207 0 24 6824 24 80019 15355 3.2 23 7 2 6 27% 6893 68365 12754 37%
c t 23.18 30 207 0 24 6824 24 80019 15355 3.2 23 7 2 6 27% 6891 68365 12754 37%
c c 23.25 30 207 0 24 6824 24 80019 15348 3.2 23 7 2 6 27% 6906 68301 12746 37%
c d 23.25 30 207 0 24 6824 24 80019 15334 3.2 23 7 2 6 27% 6890 68301 12746 37%
c u 23.33 30 207 0 24 6824 24 80019 14591 3.2 23 7 2 6 27% 6904 68301 12746 37%
c v 23.39 30 207 0 24 6824 24 80019 14200 3.2 23 7 2 6 27% 6906 68301 12746 37%
c
c  seconds   switched     rate         size/glue tier1    binary         remaining
c         MB   reductions   conflicts        size  tier2     irredundant
c           level   restarts      redundant    glue   trail         variables
c
c w 23.53 30 207 0 24 6824 24 80019 14181 3.2 23 7 2 6 27% 6906 68301 12746 37%
c x 23.62 30 207 0 24 6824 24 80019 14181 3.2 23 7 2 6 27% 6906 68111 12746 37%
c = 24.04 30 207 0 24 6824 24 80019 14181 3.2 23 7 2 6 27% 7392 68111 12503 36%
c d 24.05 30 207 0 24 6824 24 80019 13813 3.2 23 7 2 6 27% 6834 68111 12502 36%
c - 24.41 30 204 0 25 6952 24 81635 13493 3.2 22 7 2 6 27% 6835 68111 12502 36%
c - 25.56 30 201 0 26 7472 24 86636 14526 3.1 22 7 1 5 27% 6855 68111 12502 36%
c - 26.13 30 199 0 27 7791 23 91736 15838 3.1 22 7 1 5 27% 6910 68111 12502 36%
c s 26.76 30 196 0 27 8307 23 95860 19632 3.1 22 7 1 5 27% 6933 66741 12502 36%
c e 26.84 30 196 0 27 8307 23 95860 19632 3.1 22 7 1 5 27% 4690 72838 11249 32%
c 2 26.84 30 196 0 27 8307 23 95860 19632 3.1 22 7 1 5 27% 4689 72838 11249 32%
c s 26.85 30 196 0 27 8307 23 95860 19632 3.1 22 7 1 5 27% 4690 72675 11249 32%
c e 26.86 30 196 0 27 8307 23 95860 19632 3.1 22 7 1 5 27% 4684 72764 11215 32%
c ^ 26.86 30 196 0 27 8307 23 95860 19632 3.1 22 7 1 5 27% 4684 72764 11215 32%
c - 27.04 30 195 0 28 8439 23 96932 14024 3.1 22 7 1 5 27% 4686 72764 11215 32%
c - 27.88 30 190 0 29 9149 23 102223 16132 3.1 22 7 1 5 27% 4718 72761 11215 32%
c d 28.23 30 189 0 29 9474 24 104689 18056 3.1 23 7 1 5 27% 4696 72760 11187 32%
c u 28.26 30 189 0 29 9474 24 104689 15922 3.1 23 7 1 5 27% 4713 72760 11187 32%
c v 28.31 30 189 0 29 9474 24 104689 13182 3.1 23 7 1 5 27% 4717 72760 11187 32%
c w 28.48 30 189 0 29 9474 24 104689 12765 3.1 23 7 1 5 27% 4717 72760 11187 32%
c = 28.86 30 189 0 29 9474 24 104689 12765 3.1 23 7 1 5 27% 5007 72702 11037 32%
c
c  seconds   switched     rate          size/glue tier1    binary         remaining
c         MB   reductions   conflicts         size  tier2     irredundant
c           level   restarts       redundant    glue   trail         variables
c
c d 28.86 30 189 0 29 9474 24 104689 12517 3.1 23 7 1 5 27% 4658 72702 11037 32%
c t 28.87 30 189 0 29 9474 24 104689 12517 3.1 23 7 1 5 27% 4641 72702 11037 32%
c u 28.95 30 189 0 29 9474 24 104689 11971 3.1 23 7 1 5 27% 4642 72702 11037 32%
c v 28.98 30 189 0 29 9474 24 104689 11476 3.1 23 7 1 5 27% 4642 72702 11037 32%
c w 29.12 30 189 0 29 9474 24 104689 11346 3.1 23 7 1 5 27% 4642 72702 11037 32%
c x 29.19 30 189 0 29 9474 24 104689 11346 3.1 23 7 1 5 27% 4642 72653 11037 32%
c - 29.93 30 186 0 30 9710 23 107609 12065 3.0 22 7 1 5 27% 4644 72652 11037 32%
c o 30.12 30 185 0 30 9849 23 110354 14387 3.0 22 7 1 5 27% 4665 72646 11037 32%
c - 30.48 30 183 0 31 10112 23 113086 14617 3.0 22 7 1 5 28% 4670 72645 11037 32%
c - 31.15 30 182 0 32 10613 23 118653 16673 2.9 22 7 1 5 28% 4710 72644 11037 32%
c - 31.98 30 178 0 33 11187 23 124311 18335 3.0 22 8 1 5 28% 4722 72644 11037 32%
c - 32.87 30 176 0 34 11823 23 130056 19772 3.0 23 8 1 5 28% 4762 72642 11037 32%
c c 33.26 30 176 0 34 12100 23 132978 22341 3.0 23 8 1 5 28% 4803 72454 11002 32%
c d 33.27 30 176 0 34 12100 23 132978 22094 3.0 23 8 1 5 28% 4733 72454 11002 32%
c u 33.31 30 176 0 34 12100 23 132978 19678 3.0 23 8 1 5 28% 4752 72454 11002 32%
c v 33.38 30 176 0 34 12100 23 132978 16135 3.0 23 8 1 5 28% 4760 72454 11002 32%
c w 33.57 30 176 0 34 12100 23 132978 15611 3.0 23 8 1 5 28% 4760 72454 11002 32%
c d 33.57 30 176 0 34 12100 23 132978 15593 3.0 23 8 1 5 28% 4746 72454 10995 32%
c t 33.58 30 176 0 34 12100 23 132978 15593 3.0 23 8 1 5 28% 4743 72454 10995 32%
c u 33.63 30 176 0 34 12100 23 132978 14976 3.0 23 8 1 5 28% 4746 72454 10995 32%
c
c  seconds   switched      rate          size/glue tier1    binary         remaining
c         MB   reductions    conflicts         size  tier2     irredundant
c           level   restarts        redundant    glue   trail         variables
c
c v 33.67 30 176 0 34 12100 23 132978 14191 3.0 23 8 1 5 28% 4747 72454 10995 32%
c w 33.81 30 176 0 34 12100 23 132978 14033 3.0 23 8 1 5 28% 4747 72454 10995 32%
c = 34.24 30 176 0 34 12100 23 132978 14033 3.0 23 8 1 5 28% 4751 72454 10993 32%
c d 34.25 30 176 0 34 12100 23 132978 14030 3.0 23 8 1 5 28% 4744 72454 10993 32%
c t 34.26 30 176 0 34 12100 23 132978 14030 3.0 23 8 1 5 28% 4743 72454 10993 32%
c - 34.60 30 174 0 35 12275 22 135887 14330 2.9 23 8 1 5 28% 4754 72454 10993 32%
c - 35.44 30 173 0 36 12865 22 141804 16947 2.9 23 8 1 5 28% 4772 72454 10993 32%
c - 36.35 30 171 0 37 13497 22 147805 19139 2.9 23 8 1 5 28% 4798 72454 10993 32%
c - 36.98 30 168 0 38 13898 22 153888 20817 2.9 23 8 1 5 28% 4822 72453 10993 32%
c i 37.16 30 167 0 38 14028 22 155277 22061 2.9 23 8 1 5 28% 4834 72453 10992 32%
c s 37.47 30 166 0 38 14236 21 158022 24617 2.9 23 8 1 5 28% 4841 71481 10992 32%
c e 37.57 30 166 0 38 14236 21 158022 24617 2.9 23 8 1 5 28% 2662 81861 9623 28%
c s 37.59 30 166 0 38 14236 21 158022 24617 2.9 23 8 1 5 28% 2663 81277 9623 28%
c e 37.61 30 166 0 38 14236 21 158022 24617 2.9 23 8 1 5 28% 2650 81408 9590 28%
c ^ 37.61 30 166 0 38 14236 21 158022 24617 2.9 23 8 1 5 28% 2650 81408 9590 28%
c - 37.89 30 165 0 39 14455 21 160052 17204 2.9 23 8 1 5 28% 2655 81406 9590 28%
c o 37.94 30 165 0 39 14483 21 160355 17487 2.9 23 8 1 5 28% 2655 81406 9590 28%
c i 38.26 30 164 0 39 14752 21 162982 19765 2.8 23 8 1 5 28% 2672 81405 9589 28%
c c 38.51 30 163 0 39 14914 21 165001 21599 2.8 23 8 1 5 28% 2687 81299 9576 28%
c d 38.51 30 163 0 39 14914 21 165001 21427 2.8 23 8 1 5 28% 2666 81297 9576 28%
c
c  seconds   switched      rate          size/glue tier1    binary        remaining
c         MB   reductions    conflicts         size  tier2     irredundant
c           level   restarts        redundant    glue   trail        variables
c
c d 38.51 30 163 0 39 14914 21 165001 21418 2.8 23 8 1 5 28% 2663 81297 9574 28%
c u 38.56 30 163 0 39 14914 21 165001 19149 2.8 23 8 1 5 28% 2685 81297 9573 27%
c v 38.63 30 163 0 39 14914 21 165001 15783 2.8 23 8 1 5 28% 2697 81297 9573 27%
c w 38.75 30 163 0 39 14914 21 165001 15729 2.8 23 8 1 5 28% 2697 81297 9573 27%
c x 38.84 30 163 0 39 14914 21 165001 15720 2.8 23 8 1 5 28% 2699 80189 9573 27%
c = 39.31 30 163 0 39 14914 21 165001 15720 2.8 23 8 1 5 28% 2733 80133 9551 27%
c d 39.32 30 163 0 39 14914 21 165001 15606 2.8 23 8 1 5 28% 2688 80133 9551 27%
c t 39.32 30 163 0 39 14914 21 165001 15606 2.8 23 8 1 5 28% 2670 80133 9551 27%
c f 39.41 30 163 0 39 14914 21 165001 15606 2.8 23 8 1 5 28% 2681 79808 9567 27%
c u 39.47 30 163 0 39 14914 21 165001 15120 2.8 23 8 1 5 28% 2674 79808 9567 27%
c v 39.51 30 163 0 39 14914 21 165001 14554 2.8 23 8 1 5 28% 2676 79808 9567 27%
c w 39.74 30 163 0 39 14914 21 165001 13991 2.8 23 8 1 5 28% 2677 79808 9567 27%
c i 40.23 30 163 0 39 14914 21 165001 13991 2.8 23 8 1 5 28% 2677 79808 9567 27%
c - 40.38 30 162 0 40 15042 21 166297 12892 2.8 23 8 1 5 28% 2678 79808 9567 27%
c - 41.02 30 158 0 41 15428 21 172621 15882 2.8 22 8 1 5 28% 2679 79806 9567 27%
c i 41.09 30 158 0 41 15464 20 174047 17078 2.8 22 8 1 5 28% 2699 79806 9566 27%
c i 41.11 30 157 0 41 15476 20 174357 17313 2.8 22 8 1 5 28% 2706 79806 9564 27%
c i 41.12 30 157 0 41 15483 20 174497 17445 2.8 22 8 1 5 28% 2709 79806 9562 27%
c i 41.46 30 156 0 41 15702 20 177682 20359 2.7 22 8 1 5 28% 2723 79806 9560 27%
c i 41.52 30 156 0 41 15745 20 178188 20817 2.7 22 8 1 5 28% 2725 79806 9544 27%
c
c  seconds   switched      rate          size/glue tier1    binary        remaining
c         MB   reductions    conflicts         size  tier2     irredundant
c           level   restarts        redundant    glue   trail        variables
c
c - 41.62 30 155 0 42 15819 20 179024 17797 2.7 22 8 1 5 28% 2748 79804 9544 27%
c i 41.63 30 155 0 42 15828 20 179208 17937 2.7 22 8 1 5 28% 2756 79804 9543 27%
c i 41.67 30 154 0 42 15869 20 179938 18558 2.7 22 8 1 5 28% 2760 79804 9542 27%
c i 41.69 30 154 0 42 15888 20 180210 18779 2.7 22 8 1 5 28% 2767 79804 9540 27%
c i 41.70 30 154 0 42 15896 20 180434 18985 2.7 22 8 1 5 28% 2770 79804 9539 27%
c i 41.73 30 154 0 42 15914 20 180952 19415 2.7 22 8 1 5 28% 2779 79804 9538 27%
c i 41.76 30 153 0 42 15938 20 181815 20130 2.7 22 8 1 5 28% 2788 79804 9537 27%
c i 41.78 30 153 0 42 15978 20 182159 20442 2.7 22 8 1 5 28% 2794 79803 9536 27%
c i 41.80 30 152 0 42 16017 20 182767 20951 2.7 22 8 1 5 28% 2801 79803 9535 27%
c i 41.86 30 150 0 42 16121 19 185064 22842 2.7 22 8 1 5 27% 2827 79803 9533 27%
c i 41.87 30 150 0 42 16123 19 185161 22933 2.7 22 8 1 5 27% 2829 79803 9532 27%
c - 41.88 30 149 0 43 16128 19 185504 18398 2.7 22 8 1 5 27% 2801 79803 9532 27%
c i 41.88 30 149 0 43 16137 19 185820 18661 2.7 22 8 1 5 27% 2805 79803 9531 27%
c i 41.89 30 148 0 43 16142 19 186248 18941 2.7 22 8 1 5 27% 2812 79803 9530 27%
c i 41.89 30 148 0 43 16142 19 186260 18944 2.7 22 8 1 5 27% 2814 79803 9528 27%
c i 41.89 30 148 0 43 16142 19 186273 18941 2.7 22 8 1 5 27% 2819 79803 9526 27%
c i 41.89 30 148 0 43 16142 19 186278 18941 2.7 22 8 1 5 27% 2820 79803 9522 27%
c i 41.89 30 148 0 43 16142 19 186282 18940 2.7 22 8 1 5 27% 2822 79803 9521 27%
c } 41.89 30 148 0 43 16142 19 186284 18940 2.7 22 8 1 5 27% 2822 79803 9514 27%
c 0 41.89 30 148 0 43 16142 19 186284 18940 2.7 22 8 1 5 27% 2822 79803 9514 27%
c
c ---- [ result ] ------------------------------------------------------------
c
s UNSATISFIABLE
c
c ---- [ profiling ] ---------------------------------------------------------
c
c          29.53   70.50 %  search
c          29.53   70.50 %  focused
c          12.02   28.70 %  simplify
c          11.36   27.13 %  probe
c           4.90   11.69 %  sweep
c           4.43   10.59 %  vivify
c           0.85    2.02 %  eliminate
c           0.74    1.77 %  factor
c           0.58    1.38 %  congruence
c           0.51    1.23 %  substitute
c           0.29    0.68 %  preprocess
c           0.22    0.54 %  reduce
c           0.15    0.36 %  subsume
c           0.13    0.31 %  transitive
c           0.09    0.23 %  fastel
c           0.06    0.15 %  backbone
c           0.03    0.06 %  lucky
c           0.02    0.05 %  parse
c =============================================
c          41.89  100.00 %  total
c
c ---- [ statistics ] --------------------------------------------------------
c
c chronological:                         5536                3 %  conflicts
c conflicts:                           186284             4447.25 per second
c congruent:                             3635               10 %  variables
c decisions:                          3726578               20.00 per conflict
c eliminated:                           19052               55 %  variables
c factored:                              3577               10 %  variables
c fast_eliminated:                      11015               58 %  eliminated
c fast_strengthened:                        3                0 %  per strengthened
c fast_subsumed:                           54                0 %  per subsumed
c iterations:                              24                0 %  variables
c propagations:                     154176500          3680730    per second
c reductions:                              43             4332    interval
c reordered:                                6            31047    interval
c restarts:                             16142               12    interval
c strengthened:                          4507                0 %  checks
c substituted:                           9757               28 %  variables
c subsumed:                             13155                0 %  checks
c switched:                                 0                0    interval
c vivified:                             86873               15 %  checks
c
c ---- [ glue usage ] --------------------------------------------------------
c
c focused glue 1 used 293583 clauses 58.93% accumulated 58.93% tier1
c focused glue 2 used  98546 clauses 19.78% accumulated 78.70%
c focused glue 3 used  32771 clauses  6.58% accumulated 85.28%
c focused glue 4 used  18493 clauses  3.71% accumulated 88.99%
c focused glue 5 used  11934 clauses  2.40% accumulated 91.39% tier2
c
c ---- [ resources ] ---------------------------------------------------------
c
c maximum-resident-set-size:         31272960 bytes         30 MB
c process-time:                            42s              41.89 seconds
c
c ---- [ shutting down ] -----------------------------------------------------
c
c exit 20
